NAME: ../File/prFile/tspFile/tsp_file5.tsp
COMMENT: TSP file generated by Python
TYPE: TSP
DIMENSION: 30
EDGE_WEIGHT_TYPE: EUC_2D
NODE_COORD_SECTION
1 82 66
2 73 94
3 82 46
4 72 27
5 98 30
6 94 84
7 93 74
8 15 11
9 12 51
10 6 60
11 10 80
12 41 52
13 98 96
14 56 55
15 92 87
16 72 98
17 3 16
18 22 38
19 6 18
20 90 17
21 81 93
22 50 97
23 2 9
24 4 15
25 16 61
26 65 41
27 47 84
28 95 11
29 52 56
30 15 67
EOF
